NAME : gr48Preorder.1813.tour
COMMENT : Length = 1813
COMMENT : Found by LKH [Keld Helsgaun] Mon May  4 07:08:00 2020
TYPE : TOUR
DIMENSION : 48
TOUR_SECTION
1
13
48
16
11
36
26
6
14
9
21
17
27
32
22
8
33
5
31
12
10
15
24
37
47
18
46
34
23
3
19
4
30
38
20
35
42
39
40
2
45
43
25
41
44
28
7
29
-1
EOF
